NAME: eilB76_25
COMMENT: 1047.26
VEHICLE: 14
TIME: 128.1972
DIMENSION: 76
CAPACITY: 100
DELIVERY_SECTION
0 0 0
1 1 10
2 1 5
3 1 1
4 1 1
5 1 1
6 2 25
7 2 1
8 3 10
9 3 1
10 4 25
11 4 5
12 5 10
13 5 10
14 5 1
15 6 10
16 6 5
17 6 1
18 6 1
19 6 1
20 6 1
21 7 10
22 7 5
23 8 10
24 8 5
25 8 1
26 9 25
27 9 1
28 9 1
29 9 1
30 9 1
31 10 25
32 10 1
33 11 25
34 11 10
35 11 1
36 11 1
37 12 10
38 12 5
39 12 1
40 13 10
41 13 1
42 13 1
43 14 25
44 14 5
45 14 1
46 15 5
47 15 1
48 15 1
49 15 1
50 16 10
51 16 5
52 16 1
53 16 1
54 16 1
55 16 1
56 17 10
57 17 10
58 18 10
59 18 1
60 18 1
61 18 1
62 19 10
63 19 5
64 20 10
65 20 10
66 20 1
67 20 1
68 21 25
69 21 1
70 21 1
71 21 1
72 22 10
73 22 1
74 22 1
75 23 5
76 23 1
77 24 25
78 24 1
79 24 1
80 25 10
81 25 1
82 25 1
83 25 1
84 25 1
85 26 10
86 26 5
87 26 1
88 26 1
89 26 1
90 27 10
91 27 5
92 27 1
93 27 1
94 28 25
95 28 1
96 28 1
97 28 1
98 28 1
99 29 10
100 29 1
101 29 1
102 29 1
103 30 10
104 30 10
105 30 1
106 30 1
107 31 25
108 32 25
109 32 1
110 32 1
111 32 1
112 33 25
113 33 1
114 33 1
115 34 10
116 34 5
117 34 1
118 34 1
119 34 1
120 34 1
121 35 10
122 36 10
123 36 1
124 36 1
125 37 10
126 37 1
127 37 1
128 37 1
129 37 1
130 38 10
131 38 10
132 38 1
133 38 1
134 38 1
135 38 1
136 39 10
137 39 5
138 39 1
139 40 25
140 40 5
141 40 1
142 40 1
143 40 1
144 41 10
145 41 5
146 42 10
147 42 1
148 43 10
149 43 5
150 43 1
151 43 1
152 43 1
153 44 10
154 44 5
155 44 1
156 44 1
157 45 10
158 45 10
159 45 1
160 46 25
161 46 1
162 46 1
163 47 10
164 47 5
165 47 1
166 47 1
167 47 1
168 47 1
169 48 10
170 48 10
171 49 5
172 50 10
173 50 10
174 50 1
175 50 1
176 51 10
177 51 1
178 51 1
179 52 10
180 52 5
181 52 1
182 52 1
183 52 1
184 52 1
185 53 10
186 53 10
187 53 1
188 53 1
189 54 10
190 54 5
191 54 1
192 55 5
193 55 1
194 55 1
195 56 25
196 56 1
197 57 10
198 57 1
199 57 1
200 57 1
201 57 1
202 58 10
203 58 10
204 58 1
205 59 10
206 59 10
207 59 1
208 59 1
209 59 1
210 59 1
211 60 10
212 60 1
213 60 1
214 60 1
215 61 10
216 61 5
217 62 10
218 62 5
219 62 1
220 62 1
221 62 1
222 63 10
223 63 1
224 64 25
225 64 1
226 64 1
227 64 1
228 65 5
229 65 1
230 65 1
231 65 1
232 65 1
233 66 25
234 66 10
235 66 1
236 66 1
237 67 25
238 67 5
239 68 10
240 69 5
241 69 1
242 69 1
243 69 1
244 70 10
245 70 1
246 71 1
247 71 1
248 71 1
249 72 1
250 73 5
251 73 1
252 74 10
253 75 10
254 75 10
PICKUP_SECTION
NODE_SECTION
40 40

22 22

36 26

21 45

45 35

55 20

33 34

50 50

55 45

26 59

40 66

55 65

35 51

62 35

62 57

62 24

21 36

33 44

 9 56

62 48

66 14

44 13

26 13

11 28

 7 43

17 64

41 46

55 34

35 16

52 26

43 26

31 76

22 53

26 29

50 40

55 50

54 10

60 15

47 66

30 60

30 50

12 17

15 14

16 19

21 48

50 30

51 42

50 15

48 21

12 38

15 56

29 39

54 38

55 57

67 41

10 70

 6 25

65 27

40 60

70 64

64  4

36  6

30 20

20 30

15  5

50 70

57 72

45 42

38 33

50  4

66  8

59  5

35 60

27 24

40 20

40 37
DISTANCE_SECTION
DEPOT_SECTION
0
EOF